
<<< setup


<<< generate

Version identifier: 12.10.0.0 | 2019-11-26 | 843d4de2ae
CPXPARAM_TimeLimit                               1200
Tried aggregator 3 times.
MIP Presolve eliminated 5155292 rows and 2920412 columns.
MIP Presolve modified 402934 coefficients.
Aggregator did 602 substitutions.
Reduced MIP has 87156 rows, 90536 columns, and 578374 nonzeros.
Reduced MIP has 90486 binaries, 0 generals, 0 SOSs, and 0 indicators.
Presolve time = 7.45 sec. (4626.55 ticks)
Found incumbent of value 0.000000 after 10.89 sec. (6025.93 ticks)
Probing fixed 2348 vars, tightened 0 bounds.
Probing time = 34.38 sec. (6977.96 ticks)
Tried aggregator 2 times.
Detecting symmetries...
MIP Presolve eliminated 2804 rows and 2348 columns.
Aggregator did 39 substitutions.
Reduced MIP has 84313 rows, 88149 columns, and 561003 nonzeros.
Reduced MIP has 88099 binaries, 0 generals, 0 SOSs, and 0 indicators.
Presolve time = 0.81 sec. (453.08 ticks)
Probing time = 0.25 sec. (45.91 ticks)
Clique table members: 310658.
MIP emphasis: balance optimality and feasibility.
MIP search method: dynamic search.
Parallel mode: deterministic, using up to 4 threads.
Root relaxation solution time = 1.76 sec. (1128.01 ticks)

        Nodes                                         Cuts/
   Node  Left     Objective  IInf  Best Integer    Best Bound    ItCnt     Gap

*     0+    0                            0.0000   134171.0000              --- 
      0     0    70884.0000   429        0.0000    70884.0000     4719     --- 
*     0+    0                        15518.0000    70884.0000           356.79%
      0     0    70884.0000   429    15518.0000      Cuts: 19     5670  356.79%
      0     0    70884.0000   429    15518.0000    Cuts: 1091     8565  356.79%
      0     0    70884.0000   429    15518.0000     Cuts: 191     8805  356.79%
*     0+    0                        16170.0000    70884.0000           338.37%
*     0+    0                        26694.0000    70884.0000           165.54%
      0     0    70884.0000   429    26694.0000    Cuts: 4048     9546  165.54%
      0     2    70884.0000   139    26694.0000    70884.0000     9546  165.54%
Elapsed time = 115.27 sec. (58965.97 ticks, tree = 0.02 MB, solutions = 4)
      1     3    70884.0000   288    26694.0000    70884.0000    20952  165.54%
      2     4    70884.0000   353    26694.0000    70884.0000    26552  165.54%
      3     4    70884.0000   285    26694.0000    70884.0000    20953  165.54%
      4     5    70884.0000   411    26694.0000    70884.0000    30535  165.54%
      6     8    70884.0000   365    26694.0000    70884.0000    38522  165.54%
      7     9    70884.0000   360    26694.0000    70884.0000    40651  165.54%
      8    10    70884.0000   362    26694.0000    70884.0000    41712  165.54%
      9    11    70884.0000   381    26694.0000    70884.0000    42326  165.54%
     10     3    70884.0000   138    26694.0000    70884.0000    10139  165.54%
     12    12    70884.0000   310    26694.0000    70884.0000    42401  165.54%
Elapsed time = 190.45 sec. (95749.69 ticks, tree = 0.23 MB, solutions = 4)
     14    11    70884.0000   362    26694.0000    70884.0000    56321  165.54%
     16    12    70884.0000   427    26694.0000    70884.0000    65188  165.54%
     18    13    70884.0000   362    26694.0000    70884.0000    61913  165.54%
     20    14    70884.0000   348    26694.0000    70884.0000    61998  165.54%
     22    15    70884.0000   314    26694.0000    70884.0000    66098  165.54%
     24    13    70884.0000   343    26694.0000    70884.0000    80503  165.54%
     26    24    70884.0000   434    26694.0000    70884.0000    96334  165.54%
     27    25    70884.0000   402    26694.0000    70884.0000    99816  165.54%
     29    29    70884.0000   345    26694.0000    70884.0000   123989  165.54%
     32    31    70884.0000   306    26694.0000    70884.0000   125243  165.54%
Elapsed time = 276.55 sec. (115110.91 ticks, tree = 1.32 MB, solutions = 4)
     35    30    70884.0000   365    26694.0000    70884.0000   130947  165.54%
     37    32    70884.0000   335    26694.0000    70884.0000   132530  165.54%
     39    34    70884.0000   342    26694.0000    70884.0000   133696  165.54%
     41    36    70884.0000   340    26694.0000    70884.0000   134720  165.54%
     43    36    70884.0000   327    26694.0000    70884.0000   135576  165.54%
     44    37    70884.0000   386    26694.0000    70884.0000   141544  165.54%
     46    38    70884.0000   333    26694.0000    70884.0000   142550  165.54%
     49    42    70884.0000   326    26694.0000    70884.0000   145988  165.54%
     52    44    70884.0000   342    26694.0000    70884.0000   146872  165.54%
     60    47    70884.0000   314    26694.0000    70884.0000   154881  165.54%
Elapsed time = 347.92 sec. (132332.16 ticks, tree = 2.55 MB, solutions = 4)
     68    51    70884.0000   320    26694.0000    70884.0000   156019  165.54%
     74    57    70884.0000   231    26694.0000    70884.0000   158777  165.54%
     80    62    70884.0000   280    26694.0000    70884.0000   160616  165.54%
     85    67    70884.0000   231    26694.0000    70884.0000   161417  165.54%
     88    70    70884.0000   172    26694.0000    70884.0000   162386  165.54%
     91    73    70884.0000   231    26694.0000    70884.0000   163576  165.54%
     95    76    70884.0000   173    26694.0000    70884.0000   164333  165.54%
     96    77    70884.0000   234    26694.0000    70884.0000   164786  165.54%
     99    80    70884.0000   195    26694.0000    70884.0000   165886  165.54%
    103    80    70884.0000   193    26694.0000    70884.0000   166645  165.54%
Elapsed time = 380.00 sec. (146531.13 ticks, tree = 3.95 MB, solutions = 4)
    107    82    70884.0000   226    26694.0000    70884.0000   178270  165.54%
    111    91    70884.0000   310    26694.0000    70884.0000   183131  165.54%
    116   101    70884.0000   298    26694.0000    70884.0000   186535  165.54%
    119    94    70884.0000   319    26694.0000    70884.0000   184574  165.54%
    124    96    70884.0000   296    26694.0000    70884.0000   186191  165.54%
    128   106    70884.0000   273    26694.0000    70884.0000   190911  165.54%
    130   108    70884.0000   290    26694.0000    70884.0000   192395  165.54%
    131   100    70884.0000   270    26694.0000    70884.0000   187931  165.54%
    133   121    70884.0000   259    26694.0000    70884.0000   214255  165.54%
    138   111    70884.0000   274    26694.0000    70884.0000   204971  165.54%
Elapsed time = 417.61 sec. (162777.86 ticks, tree = 3.49 MB, solutions = 4)
    142   126    70884.0000   247    26694.0000    70884.0000   218265  165.54%
    143   113    70884.0000   257    26694.0000    70884.0000   205747  165.54%
    148   116    70884.0000   253    26694.0000    70884.0000   207088  165.54%
    155   131    70884.0000   192    26694.0000    70884.0000   223034  165.54%
    162   134    70884.0000   171    26694.0000    70884.0000   225199  165.54%
    163   135    70884.0000   189    26694.0000    70884.0000   226550  165.54%
    174   138    70884.0000   197    26694.0000    70884.0000   228380  165.54%
    179   135    70884.0000   157    26694.0000    70884.0000   233989  165.54%
    182   124    70884.0000   335    26694.0000    70884.0000   233316  165.54%
    185   154    70884.0000   191    26694.0000    70884.0000   250911  165.54%
Elapsed time = 446.11 sec. (174150.46 ticks, tree = 5.38 MB, solutions = 4)
    193   122    70884.0000   336    26694.0000    70884.0000   231391  165.54%
    201   157    70884.0000   143    26694.0000    70884.0000   253431  165.54%
    209   145    70884.0000   150    26694.0000    70884.0000   239290  165.54%
    213   146    70884.0000   147    26694.0000    70884.0000   241009  165.54%
    217   162    70884.0000   376    26694.0000    70884.0000   274602  165.54%
    225   149    70884.0000   159    26694.0000    70884.0000   244439  165.54%
    244   180    70884.0000   128    26694.0000    70884.0000   281759  165.54%
    251   164    70884.0000   346    26694.0000    70884.0000   276705  165.54%
    262   185    70884.0000   143    26694.0000    70884.0000   284107  165.54%
    283   187    70884.0000   104    26694.0000    70884.0000   284403  165.54%
Elapsed time = 471.72 sec. (185371.43 ticks, tree = 14.58 MB, solutions = 4)
    298   167    70884.0000   364    26694.0000    70884.0000   279999  165.54%
    314   183    70884.0000   145    26694.0000    70884.0000   299419  165.54%
    336   195    70884.0000   131    26694.0000    70884.0000   286303  165.54%
    362   188    infeasible          26694.0000    70884.0000   300207  165.54%
    385   193    70884.0000   178    26694.0000    70884.0000   300816  165.54%
    408   197    70884.0000   150    26694.0000    70884.0000   301349  165.54%
    426   199    70884.0000   166    26694.0000    70884.0000   302196  165.54%
    441   204    70884.0000    91    26694.0000    70884.0000   302664  165.54%
    467   205    70884.0000    58    26694.0000    70884.0000   302975  165.54%
    493   204    70884.0000   109    26694.0000    70884.0000   303357  165.54%
Elapsed time = 513.38 sec. (195498.83 ticks, tree = 24.63 MB, solutions = 4)
    511   206    70884.0000   101    26694.0000    70884.0000   304157  165.54%
    514   261    infeasible          26694.0000    70884.0000   327582  165.54%
    517   232    70884.0000   168    26694.0000    70884.0000   322083  165.54%
    525   238    70884.0000    92    26694.0000    70884.0000   322511  165.54%
    543   259    70884.0000   127    26694.0000    70884.0000   328169  165.54%
    572   247    70884.0000    82    26694.0000    70884.0000   323996  165.54%
    582   260    70884.0000    99    26694.0000    70884.0000   328913  165.54%
    587   261    70884.0000    97    26694.0000    70884.0000   329075  165.54%
    598   292    70884.0000    88    26694.0000    70884.0000   349285  165.54%
    629   288    70884.0000   110    26694.0000    70884.0000   341555  165.54%
Elapsed time = 577.00 sec. (209088.53 ticks, tree = 52.20 MB, solutions = 4)
    652   288    70884.0000    87    26694.0000    70884.0000   341908  165.54%
    684   290    70884.0000   176    26694.0000    70884.0000   342584  165.54%
    712   289    70884.0000    93    26694.0000    70884.0000   343385  165.54%
    743   299    70884.0000   198    26694.0000    70884.0000   354480  165.54%
    769   296    70884.0000    75    26694.0000    70884.0000   352879  165.54%
    815   298    70884.0000   109    26694.0000    70884.0000   355637  165.54%
    852   295    70884.0000   391    26694.0000    70884.0000   354992  165.54%
    875   303    70884.0000   193    26694.0000    70884.0000   359080  165.54%
    913   299    70884.0000   142    26694.0000    70884.0000   356958  165.54%
   1039   331    70884.0000   148    26694.0000    70884.0000   377623  165.54%
Elapsed time = 601.92 sec. (222012.38 ticks, tree = 70.36 MB, solutions = 4)
   1253   329    infeasible          26694.0000    70884.0000   379643  165.54%
   1394   328    70884.0000   110    26694.0000    70884.0000   381993  165.54%
   1522   355    70884.0000   118    26694.0000    70884.0000   406549  165.54%
   1676   350    70884.0000   107    26694.0000    70884.0000   403842  165.54%
   1818   370    infeasible          26694.0000    70884.0000   429132  165.54%
   2028   381    infeasible          26694.0000    70884.0000   435251  165.54%
   2224   374    70884.0000   120    26694.0000    70884.0000   440862  165.54%
   2466   399    70884.0000    99    26694.0000    70884.0000   454603  165.54%
*  2638+  379                        65817.0000    70884.0000             7.70%
*  2640+  379                        70232.0000    70884.0000             0.93%
   2640   383    70884.0000    95    70232.0000    70884.0000   456512    0.93%
   2839   401    70884.0000   130    70232.0000    70884.0000   467989    0.93%
Elapsed time = 682.55 sec. (260407.29 ticks, tree = 103.67 MB, solutions = 6)
   3034   407    70884.0000    92    70232.0000    70884.0000   472171    0.93%
   3239   427    70884.0000   141    70232.0000    70884.0000   487623    0.93%
   3466   442    infeasible          70232.0000    70884.0000   492465    0.93%
*  3526+  401                        70884.0000    70884.0000             0.00%
   3613   449    70884.0000    88    70884.0000    70884.0000   502866    0.00%
   3663   457    70884.0000   147    70884.0000    70884.0000   506693    0.00%

Cover cuts applied:  1
Implied bound cuts applied:  413
Flow cuts applied:  3
Mixed integer rounding cuts applied:  1457

Root node processing (before b&c):
  Real time             =  114.50 sec. (58667.32 ticks)
Parallel b&c, 4 threads:
  Real time             =  606.13 sec. (221561.47 ticks)
  Sync time (average)   =  112.21 sec.
  Wait time (average)   =    0.00 sec.
                          ------------
Total (root+branch&cut) =  720.63 sec. (280228.79 ticks)

<<< solve


OBJECTIVE: 70884

<<< post process


<<< done

